(set-logic QF_NRA)
(set-info :source |Benchmarks generated from hycomp (https://es-static.fbk.eu/tools/hycomp/). BMC instances of non-linear hybrid automata taken from: Alessandro Cimatti, Sergio Mover, Stefano Tonetta, A quantifier-free SMT encoding of non-linear hybrid automata, FMCAD 2012 and Alessandro Cimatti, Sergio Mover, Stefano Tonetta, Quantier-free encoding of invariants for Hybrid Systems, Formal Methods in System Design. This instance solves a BMC problem of depth 1 and uses the quantifier free encoding with equivalences encoding. Contacts: Sergio Mover (mover@fbk.eu), Stefano Tonetta (tonettas@fbk.eu), Alessandro Cimatti (cimatti@fbk.eu).|)
(set-info :smt-lib-version 2.0)
(set-info :category "industrial")
(set-info :status unsat)
;; MathSAT API call trace
;; generated on Mon Mar 19 10:39:27 2012
(declare-fun b.counter.3__AT1 () Bool)
(declare-fun b.delta__AT1 () Real)
(declare-fun b.EVENT.0__AT1 () Bool)
(declare-fun b.x__AT1 () Real)
(declare-fun b.EVENT.1__AT1 () Bool)
(declare-fun b.event_is_timed__AT0 () Bool)
(declare-fun b.y__AT0 () Real)
(declare-fun b.counter.0__AT0 () Bool)
(declare-fun b.counter.1__AT0 () Bool)
(declare-fun b.EVENT.0__AT0 () Bool)
(declare-fun b.bool_atom__AT0 () Bool)
(declare-fun b.counter.2__AT0 () Bool)
(declare-fun b.speed_y__AT1 () Real)
(declare-fun b.event_is_timed__AT1 () Bool)
(declare-fun b.x__AT0 () Real)
(declare-fun b.time__AT1 () Real)
(declare-fun b.bool_atom__AT1 () Bool)
(declare-fun b.g__AT0 () Real)
(declare-fun b.EVENT.1__AT0 () Bool)
(declare-fun b.time__AT0 () Real)
(declare-fun b.delta__AT0 () Real)
(declare-fun b.counter.3__AT0 () Bool)
(declare-fun b.speed_y__AT0 () Real)
(declare-fun b.y__AT1 () Real)
(declare-fun b.counter.0__AT1 () Bool)
(declare-fun b.counter.1__AT1 () Bool)
(declare-fun b.counter.2__AT1 () Bool)
(assert (let ((.def_66 (* (- 1.0) b.g__AT0)))
(let ((.def_69 (* (/ 1 2) .def_66)))
(let ((.def_82 (* 2.0 .def_69)))
(let ((.def_262 (* .def_82 b.delta__AT1)))
(let ((.def_263 (+ b.speed_y__AT1 .def_262)))
(let ((.def_267 (<= .def_263 0.0 )))
(let ((.def_266 (<= b.speed_y__AT1 0.0 )))
(let ((.def_268 (and .def_266 .def_267)))
(let ((.def_264 (<= 0.0 .def_263)))
(let ((.def_261 (<= 0.0 b.speed_y__AT1)))
(let ((.def_265 (and .def_261 .def_264)))
(let ((.def_269 (or .def_265 .def_268)))
(let ((.def_252 (* b.speed_y__AT1 b.delta__AT1)))
(let ((.def_250 (* b.delta__AT1 b.delta__AT1)))
(let ((.def_251 (* .def_69 .def_250)))
(let ((.def_253 (+ .def_251 .def_252)))
(let ((.def_238 (* (- 1.0) b.x__AT1)))
(let ((.def_239 (* b.x__AT1 .def_238)))
(let ((.def_254 (* (- 1.0) .def_239)))
(let ((.def_257 (+ .def_254 .def_253)))
(let ((.def_258 (+ b.y__AT1 .def_257)))
(let ((.def_259 (<= 0.0 .def_258)))
(let ((.def_240 (<= .def_239 b.y__AT1)))
(let ((.def_260 (and .def_240 .def_259)))
(let ((.def_270 (and .def_260 .def_269)))
(let ((.def_58 (<= b.g__AT0 10.0 )))
(let ((.def_57 (<= 8.0 b.g__AT0)))
(let ((.def_59 (and .def_57 .def_58)))
(let ((.def_271 (and .def_59 .def_270)))
(let ((.def_28 (not b.counter.0__AT0)))
(let ((.def_244 (or b.counter.1__AT0 .def_28)))
(let ((.def_31 (not b.counter.2__AT0)))
(let ((.def_245 (or .def_31 .def_244)))
(let ((.def_246 (or b.counter.3__AT0 .def_245)))
(let ((.def_241 (and .def_59 .def_240)))
(let ((.def_235 (not b.EVENT.0__AT1)))
(let ((.def_233 (not b.EVENT.1__AT1)))
(let ((.def_236 (or .def_233 .def_235)))
(let ((.def_148 (not b.counter.1__AT1)))
(let ((.def_4 (not b.counter.0__AT1)))
(let ((.def_226 (or .def_4 .def_148)))
(let ((.def_230 (or b.counter.3__AT1 .def_226)))
(let ((.def_227 (or b.counter.2__AT1 .def_226)))
(let ((.def_8 (not b.counter.2__AT1)))
(let ((.def_225 (or .def_4 .def_8)))
(let ((.def_228 (and .def_225 .def_227)))
(let ((.def_165 (not b.counter.3__AT1)))
(let ((.def_229 (or .def_165 .def_228)))
(let ((.def_231 (and .def_229 .def_230)))
(let ((.def_237 (and .def_231 .def_236)))
(let ((.def_242 (and .def_237 .def_241)))
(let ((.def_220 (<= 0.0 b.delta__AT0)))
(let ((.def_47 (not b.EVENT.0__AT0)))
(let ((.def_45 (not b.EVENT.1__AT0)))
(let ((.def_94 (and .def_45 .def_47)))
(let ((.def_96 (not .def_94)))
(let ((.def_221 (or .def_96 .def_220)))
(let ((.def_222 (or b.EVENT.1__AT0 .def_221)))
(let ((.def_132 (= b.bool_atom__AT0 b.bool_atom__AT1)))
(let ((.def_127 (= b.counter.0__AT1 b.counter.0__AT0)))
(let ((.def_125 (= b.counter.1__AT1 b.counter.1__AT0)))
(let ((.def_123 (= b.counter.2__AT1 b.counter.2__AT0)))
(let ((.def_122 (= b.counter.3__AT1 b.counter.3__AT0)))
(let ((.def_124 (and .def_122 .def_123)))
(let ((.def_126 (and .def_124 .def_125)))
(let ((.def_128 (and .def_126 .def_127)))
(let ((.def_216 (and .def_128 .def_132)))
(let ((.def_217 (or .def_96 .def_216)))
(let ((.def_218 (or b.EVENT.1__AT0 .def_217)))
(let ((.def_205 (* b.delta__AT0 .def_66)))
(let ((.def_206 (* (- 1.0) b.speed_y__AT1)))
(let ((.def_209 (+ .def_206 .def_205)))
(let ((.def_210 (+ b.speed_y__AT0 .def_209)))
(let ((.def_211 (= .def_210 0.0 )))
(let ((.def_197 (* (- 1.0) b.y__AT1)))
(let ((.def_72 (* b.delta__AT0 b.speed_y__AT0)))
(let ((.def_200 (+ .def_72 .def_197)))
(let ((.def_65 (* b.delta__AT0 b.delta__AT0)))
(let ((.def_70 (* .def_65 .def_69)))
(let ((.def_201 (+ .def_70 .def_200)))
(let ((.def_202 (+ b.y__AT0 .def_201)))
(let ((.def_203 (= .def_202 0.0 )))
(let ((.def_114 (= b.x__AT0 b.x__AT1)))
(let ((.def_204 (and .def_114 .def_203)))
(let ((.def_212 (and .def_204 .def_211)))
(let ((.def_213 (or .def_96 .def_212)))
(let ((.def_117 (= b.y__AT0 b.y__AT1)))
(let ((.def_192 (and .def_114 .def_117)))
(let ((.def_120 (= b.speed_y__AT0 b.speed_y__AT1)))
(let ((.def_193 (and .def_120 .def_192)))
(let ((.def_189 (= b.delta__AT0 0.0 )))
(let ((.def_190 (and .def_94 .def_189)))
(let ((.def_191 (not .def_190)))
(let ((.def_194 (or .def_191 .def_193)))
(let ((.def_195 (or b.EVENT.1__AT0 .def_194)))
(let ((.def_182 (and .def_120 .def_128)))
(let ((.def_183 (or b.bool_atom__AT0 .def_182)))
(let ((.def_157 (or .def_4 b.counter.0__AT0)))
(let ((.def_156 (or b.counter.0__AT1 .def_28)))
(let ((.def_158 (and .def_156 .def_157)))
(let ((.def_159 (and .def_148 .def_158)))
(let ((.def_160 (or b.counter.1__AT0 .def_159)))
(let ((.def_26 (not b.counter.1__AT0)))
(let ((.def_155 (or b.counter.1__AT1 .def_26)))
(let ((.def_161 (and .def_155 .def_160)))
(let ((.def_173 (and .def_8 .def_161)))
(let ((.def_174 (or b.counter.2__AT0 .def_173)))
(let ((.def_168 (and .def_28 .def_148)))
(let ((.def_169 (or b.counter.1__AT0 .def_168)))
(let ((.def_170 (and .def_155 .def_169)))
(let ((.def_171 (and b.counter.2__AT1 .def_170)))
(let ((.def_172 (or .def_31 .def_171)))
(let ((.def_175 (and .def_172 .def_174)))
(let ((.def_176 (and b.counter.3__AT1 .def_175)))
(let ((.def_177 (or b.counter.3__AT0 .def_176)))
(let ((.def_162 (and b.counter.2__AT1 .def_161)))
(let ((.def_163 (or b.counter.2__AT0 .def_162)))
(let ((.def_151 (or b.counter.1__AT1 b.counter.1__AT0)))
(let ((.def_149 (and b.counter.0__AT1 .def_148)))
(let ((.def_150 (or .def_26 .def_149)))
(let ((.def_152 (and .def_150 .def_151)))
(let ((.def_153 (and .def_8 .def_152)))
(let ((.def_154 (or .def_31 .def_153)))
(let ((.def_164 (and .def_154 .def_163)))
(let ((.def_166 (and .def_164 .def_165)))
(let ((.def_34 (not b.counter.3__AT0)))
(let ((.def_167 (or .def_34 .def_166)))
(let ((.def_178 (and .def_167 .def_177)))
(let ((.def_145 (* b.speed_y__AT0 b.speed_y__AT0)))
(let ((.def_144 (* b.speed_y__AT1 b.speed_y__AT1)))
(let ((.def_146 (= .def_144 .def_145)))
(let ((.def_142 (+ b.speed_y__AT0 b.speed_y__AT1)))
(let ((.def_143 (= .def_142 0.0 )))
(let ((.def_147 (and .def_143 .def_146)))
(let ((.def_179 (and .def_147 .def_178)))
(let ((.def_141 (not b.bool_atom__AT0)))
(let ((.def_180 (or .def_141 .def_179)))
(let ((.def_81 (<= 0.0 b.speed_y__AT0)))
(let ((.def_138 (not .def_81)))
(let ((.def_52 (* (- 1.0) b.x__AT0)))
(let ((.def_53 (* b.x__AT0 .def_52)))
(let ((.def_137 (= b.y__AT0 .def_53)))
(let ((.def_139 (and .def_137 .def_138)))
(let ((.def_140 (= b.bool_atom__AT0 .def_139)))
(let ((.def_181 (and .def_140 .def_180)))
(let ((.def_184 (and .def_181 .def_183)))
(let ((.def_185 (and .def_114 .def_184)))
(let ((.def_186 (and .def_117 .def_185)))
(let ((.def_187 (or .def_94 .def_186)))
(let ((.def_188 (or b.EVENT.1__AT0 .def_187)))
(let ((.def_196 (and .def_188 .def_195)))
(let ((.def_214 (and .def_196 .def_213)))
(let ((.def_101 (= b.time__AT0 b.time__AT1)))
(let ((.def_115 (and .def_101 .def_114)))
(let ((.def_118 (and .def_115 .def_117)))
(let ((.def_121 (and .def_118 .def_120)))
(let ((.def_129 (and .def_121 .def_128)))
(let ((.def_133 (and .def_129 .def_132)))
(let ((.def_134 (or .def_45 .def_133)))
(let ((.def_104 (* (- 1.0) b.time__AT1)))
(let ((.def_107 (+ b.delta__AT0 .def_104)))
(let ((.def_108 (+ b.time__AT0 .def_107)))
(let ((.def_109 (= .def_108 0.0 )))
(let ((.def_110 (or .def_96 .def_109)))
(let ((.def_111 (or b.EVENT.1__AT0 .def_110)))
(let ((.def_102 (or .def_94 .def_101)))
(let ((.def_103 (or b.EVENT.1__AT0 .def_102)))
(let ((.def_112 (and .def_103 .def_111)))
(let ((.def_135 (and .def_112 .def_134)))
(let ((.def_98 (= .def_96 b.event_is_timed__AT1)))
(let ((.def_95 (= b.event_is_timed__AT0 .def_94)))
(let ((.def_99 (and .def_95 .def_98)))
(let ((.def_136 (and .def_99 .def_135)))
(let ((.def_215 (and .def_136 .def_214)))
(let ((.def_219 (and .def_215 .def_218)))
(let ((.def_223 (and .def_219 .def_222)))
(let ((.def_224 (and .def_45 .def_223)))
(let ((.def_243 (and .def_224 .def_242)))
(let ((.def_247 (and .def_243 .def_246)))
(let ((.def_83 (* b.delta__AT0 .def_82)))
(let ((.def_84 (+ b.speed_y__AT0 .def_83)))
(let ((.def_88 (<= .def_84 0.0 )))
(let ((.def_87 (<= b.speed_y__AT0 0.0 )))
(let ((.def_89 (and .def_87 .def_88)))
(let ((.def_85 (<= 0.0 .def_84)))
(let ((.def_86 (and .def_81 .def_85)))
(let ((.def_90 (or .def_86 .def_89)))
(let ((.def_73 (+ .def_70 .def_72)))
(let ((.def_74 (* (- 1.0) .def_53)))
(let ((.def_77 (+ .def_74 .def_73)))
(let ((.def_78 (+ b.y__AT0 .def_77)))
(let ((.def_79 (<= 0.0 .def_78)))
(let ((.def_54 (<= .def_53 b.y__AT0)))
(let ((.def_80 (and .def_54 .def_79)))
(let ((.def_91 (and .def_80 .def_90)))
(let ((.def_92 (and .def_59 .def_91)))
(let ((.def_60 (and .def_54 .def_59)))
(let ((.def_48 (or .def_45 .def_47)))
(let ((.def_38 (or .def_26 .def_28)))
(let ((.def_42 (or b.counter.3__AT0 .def_38)))
(let ((.def_39 (or b.counter.2__AT0 .def_38)))
(let ((.def_37 (or .def_28 .def_31)))
(let ((.def_40 (and .def_37 .def_39)))
(let ((.def_41 (or .def_34 .def_40)))
(let ((.def_43 (and .def_41 .def_42)))
(let ((.def_49 (and .def_43 .def_48)))
(let ((.def_61 (and .def_49 .def_60)))
(let ((.def_29 (and .def_26 .def_28)))
(let ((.def_32 (and .def_29 .def_31)))
(let ((.def_35 (and .def_32 .def_34)))
(let ((.def_23 (= b.y__AT0 10.0 )))
(let ((.def_19 (= b.x__AT0 0.0 )))
(let ((.def_15 (= b.time__AT0 0.0 )))
(let ((.def_17 (and .def_15 b.event_is_timed__AT0)))
(let ((.def_20 (and .def_17 .def_19)))
(let ((.def_24 (and .def_20 .def_23)))
(let ((.def_36 (and .def_24 .def_35)))
(let ((.def_62 (and .def_36 .def_61)))
(let ((.def_6 (or .def_4 b.counter.1__AT1)))
(let ((.def_9 (or .def_6 .def_8)))
(let ((.def_11 (or .def_9 b.counter.3__AT1)))
(let ((.def_12 (not .def_11)))
(let ((.def_63 (and .def_12 .def_62)))
(let ((.def_93 (and .def_63 .def_92)))
(let ((.def_248 (and .def_93 .def_247)))
(let ((.def_272 (and .def_248 .def_271)))
.def_272)))))))))))))))))))))))))))))))))))))))))))))))))))))))))))))))))))))))))))))))))))))))))))))))))))))))))))))))))))))))))))))))))))))))))))))))))))))))))))))))))))))))))))))))))))))))))))))))))))))))))))))))))))))))))))))))))))
(check-sat)
(exit)
